kp_lp_files/eil51_n50_bounded-strongly-corr_01-kp.lp
MAXIMIZE
101 z0 + 202 z1 + 404 z2 + 202 z3 + 996 z4 + 1992 z5 + 3984 z6 + 467 z7 + 934 z8 + 1868 z9 + 790 z10 + 790 z11 + 713 z12 + 1426 z13 + 2852 z14 + 974 z15 + 974 z16 + 222 z17 + 444 z18 + 888 z19 + 666 z20 + 586 z21 + 1172 z22 + 1172 z23 + 923 z24 + 923 z25 + 563 z26 + 1126 z27 + 563 z28 + 689 z29 + 1378 z30 + 1378 z31 + 425 z32 + 850 z33 + 1700 z34 + 1275 z35 + 1100 z36 + 2200 z37 + 4400 z38 + 876 z39 + 1752 z40 + 2628 z41 + 223 z42 + 456 z43 + 405 z44 + 810 z45 + 1620 z46 + 405 z47 + 147 z48 + 294 z49
SUBJECT TO
1 z0 + 2 z1 + 4 z2 + 2 z3 + 896 z4 + 1792 z5 + 3584 z6 + 367 z7 + 734 z8 + 1468 z9 + 690 z10 + 690 z11 + 613 z12 + 1226 z13 + 2452 z14 + 874 z15 + 874 z16 + 122 z17 + 244 z18 + 488 z19 + 366 z20 + 486 z21 + 972 z22 + 972 z23 + 823 z24 + 823 z25 + 463 z26 + 926 z27 + 463 z28 + 589 z29 + 1178 z30 + 1178 z31 + 325 z32 + 650 z33 + 1300 z34 + 975 z35 + 1000 z36 + 2000 z37 + 4000 z38 + 776 z39 + 1552 z40 + 2328 z41 + 123 z42 + 356 z43 + 305 z44 + 610 z45 + 1220 z46 + 305 z47 + 47 z48 + 94 z49 <= 4029
BINARIES
z0
z1
z2
z3
z4
z5
z6
z7
z8
z9
z10
z11
z12
z13
z14
z15
z16
z17
z18
z19
z20
z21
z22
z23
z24
z25
z26
z27
z28
z29
z30
z31
z32
z33
z34
z35
z36
z37
z38
z39
z40
z41
z42
z43
z44
z45
z46
z47
z48
z49
END