kp_sol_files/eil51_n50_bounded-strongly-corr_01-kp.sol
# Objective value = 7124
z0 1
z1 1
z2 1
z3 1
z4 0
z5 0
z6 0
z7 0
z8 0
z9 0
z10 0
z11 0
z12 0
z13 0
z14 0
z15 0
z16 0
z17 1
z18 1
z19 1
z20 1
z21 0
z22 0
z23 0
z24 0
z25 0
z26 0
z27 0
z28 0
z29 0
z30 0
z31 0
z32 0
z33 1
z34 0
z35 0
z36 0
z37 0
z38 0
z39 0
z40 0
z41 0
z42 1
z43 1
z44 0
z45 0
z46 1
z47 1
z48 1
z49 1
